c  Cheryian Graph
c n = 10, m = 10, c = 10, total vertices 416 
p max 427 473
n 1 s
n 427 t
a 1 204 10
a 1 194 10
a 1 184 10
a 1 174 10
a 1 164 10
a 1 154 10
a 1 144 10
a 1 134 10
a 1 124 10
a 1 114 10
a 1 104 10
a 1 94 10
a 1 84 10
a 1 74 10
a 1 64 10
a 1 54 10
a 1 44 10
a 1 34 10
a 1 24 10
a 1 14 10
a 2 405 10
a 2 304 10
a 2 294 10
a 2 284 10
a 2 274 10
a 2 264 10
a 2 254 10
a 2 244 10
a 2 234 10
a 2 224 10
a 2 214 10
a 3 404 10
a 3 394 10
a 3 384 10
a 3 374 10
a 3 364 10
a 3 354 10
a 3 344 10
a 3 334 10
a 3 324 10
a 3 314 10
a 4 427 1000000
a 5 2 1000000
a 6 5 1000000
a 7 6 1000000
a 8 7 1000000
a 9 8 1000000
a 10 9 1000000
a 11 10 1000000
a 12 11 1000000
a 13 12 1000000
a 14 13 1000000
a 15 14 1000000
a 16 15 1000000
a 17 16 1000000
a 18 17 1000000
a 19 18 1000000
a 20 19 1000000
a 21 20 1000000
a 22 21 1000000
a 23 22 1000000
a 24 23 1000000
a 25 24 1000000
a 26 25 1000000
a 27 26 1000000
a 28 27 1000000
a 29 28 1000000
a 30 29 1000000
a 31 30 1000000
a 32 31 1000000
a 33 32 1000000
a 34 33 1000000
a 35 34 1000000
a 36 35 1000000
a 37 36 1000000
a 38 37 1000000
a 39 38 1000000
a 40 39 1000000
a 41 40 1000000
a 42 41 1000000
a 43 42 1000000
a 44 43 1000000
a 45 44 1000000
a 46 45 1000000
a 47 46 1000000
a 48 47 1000000
a 49 48 1000000
a 50 49 1000000
a 51 50 1000000
a 52 51 1000000
a 53 52 1000000
a 54 53 1000000
a 55 54 1000000
a 56 55 1000000
a 57 56 1000000
a 58 57 1000000
a 59 58 1000000
a 60 59 1000000
a 61 60 1000000
a 62 61 1000000
a 63 62 1000000
a 64 63 1000000
a 65 64 1000000
a 66 65 1000000
a 67 66 1000000
a 68 67 1000000
a 69 68 1000000
a 70 69 1000000
a 71 70 1000000
a 72 71 1000000
a 73 72 1000000
a 74 73 1000000
a 75 74 1000000
a 76 75 1000000
a 77 76 1000000
a 78 77 1000000
a 79 78 1000000
a 80 79 1000000
a 81 80 1000000
a 82 81 1000000
a 83 82 1000000
a 84 83 1000000
a 85 84 1000000
a 86 85 1000000
a 87 86 1000000
a 88 87 1000000
a 89 88 1000000
a 90 89 1000000
a 91 90 1000000
a 92 91 1000000
a 93 92 1000000
a 94 93 1000000
a 95 94 1000000
a 96 95 1000000
a 97 96 1000000
a 98 97 1000000
a 99 98 1000000
a 100 99 1000000
a 101 100 1000000
a 102 101 1000000
a 103 102 1000000
a 104 103 1000000
a 105 3 1000000
a 106 105 1000000
a 107 106 1000000
a 108 107 1000000
a 109 108 1000000
a 110 109 1000000
a 111 110 1000000
a 112 111 1000000
a 113 112 1000000
a 114 113 1000000
a 115 114 1000000
a 116 115 1000000
a 117 116 1000000
a 118 117 1000000
a 119 118 1000000
a 120 119 1000000
a 121 120 1000000
a 122 121 1000000
a 123 122 1000000
a 124 123 1000000
a 125 124 1000000
a 126 125 1000000
a 127 126 1000000
a 128 127 1000000
a 129 128 1000000
a 130 129 1000000
a 131 130 1000000
a 132 131 1000000
a 133 132 1000000
a 134 133 1000000
a 135 134 1000000
a 136 135 1000000
a 137 136 1000000
a 138 137 1000000
a 139 138 1000000
a 140 139 1000000
a 141 140 1000000
a 142 141 1000000
a 143 142 1000000
a 144 143 1000000
a 145 144 1000000
a 146 145 1000000
a 147 146 1000000
a 148 147 1000000
a 149 148 1000000
a 150 149 1000000
a 151 150 1000000
a 152 151 1000000
a 153 152 1000000
a 154 153 1000000
a 155 154 1000000
a 156 155 1000000
a 157 156 1000000
a 158 157 1000000
a 159 158 1000000
a 160 159 1000000
a 161 160 1000000
a 162 161 1000000
a 163 162 1000000
a 164 163 1000000
a 165 164 1000000
a 166 165 1000000
a 167 166 1000000
a 168 167 1000000
a 169 168 1000000
a 170 169 1000000
a 171 170 1000000
a 172 171 1000000
a 173 172 1000000
a 174 173 1000000
a 175 174 1000000
a 176 175 1000000
a 177 176 1000000
a 178 177 1000000
a 179 178 1000000
a 180 179 1000000
a 181 180 1000000
a 182 181 1000000
a 183 182 1000000
a 184 183 1000000
a 185 184 1000000
a 186 185 1000000
a 187 186 1000000
a 188 187 1000000
a 189 188 1000000
a 190 189 1000000
a 191 190 1000000
a 192 191 1000000
a 193 192 1000000
a 194 193 1000000
a 195 194 1000000
a 196 195 1000000
a 197 196 1000000
a 198 197 1000000
a 199 198 1000000
a 200 199 1000000
a 201 200 1000000
a 202 201 1000000
a 203 202 1000000
a 204 203 1000000
a 205 4 1000000
a 206 205 1000000
a 207 206 1000000
a 208 207 1000000
a 209 208 1000000
a 210 209 1000000
a 211 210 1000000
a 212 211 1000000
a 213 212 1000000
a 214 213 1000000
a 215 214 1000000
a 216 215 1000000
a 217 216 1000000
a 218 217 1000000
a 219 218 1000000
a 220 219 1000000
a 221 220 1000000
a 222 221 1000000
a 223 222 1000000
a 224 223 1000000
a 225 224 1000000
a 226 225 1000000
a 227 226 1000000
a 228 227 1000000
a 229 228 1000000
a 230 229 1000000
a 231 230 1000000
a 232 231 1000000
a 233 232 1000000
a 234 233 1000000
a 235 234 1000000
a 236 235 1000000
a 237 236 1000000
a 238 237 1000000
a 239 238 1000000
a 240 239 1000000
a 241 240 1000000
a 242 241 1000000
a 243 242 1000000
a 244 243 1000000
a 245 244 1000000
a 246 245 1000000
a 247 246 1000000
a 248 247 1000000
a 249 248 1000000
a 250 249 1000000
a 251 250 1000000
a 252 251 1000000
a 253 252 1000000
a 254 253 1000000
a 255 254 1000000
a 256 255 1000000
a 257 256 1000000
a 258 257 1000000
a 259 258 1000000
a 260 259 1000000
a 261 260 1000000
a 262 261 1000000
a 263 262 1000000
a 264 263 1000000
a 265 264 1000000
a 266 265 1000000
a 267 266 1000000
a 268 267 1000000
a 269 268 1000000
a 270 269 1000000
a 271 270 1000000
a 272 271 1000000
a 273 272 1000000
a 274 273 1000000
a 275 274 1000000
a 276 275 1000000
a 277 276 1000000
a 278 277 1000000
a 279 278 1000000
a 280 279 1000000
a 281 280 1000000
a 282 281 1000000
a 283 282 1000000
a 284 283 1000000
a 285 284 1000000
a 286 285 1000000
a 287 286 1000000
a 288 287 1000000
a 289 288 1000000
a 290 289 1000000
a 291 290 1000000
a 292 291 1000000
a 293 292 1000000
a 294 293 1000000
a 295 294 1000000
a 296 295 1000000
a 297 296 1000000
a 298 297 1000000
a 299 298 1000000
a 300 299 1000000
a 301 300 1000000
a 302 301 1000000
a 303 302 1000000
a 304 303 1000000
a 305 4 1000000
a 306 305 1000000
a 307 306 1000000
a 308 307 1000000
a 309 308 1000000
a 310 309 1000000
a 311 310 1000000
a 312 311 1000000
a 313 312 1000000
a 314 313 1000000
a 315 314 1000000
a 316 315 1000000
a 317 316 1000000
a 318 317 1000000
a 319 318 1000000
a 320 319 1000000
a 321 320 1000000
a 322 321 1000000
a 323 322 1000000
a 324 323 1000000
a 325 324 1000000
a 326 325 1000000
a 327 326 1000000
a 328 327 1000000
a 329 328 1000000
a 330 329 1000000
a 331 330 1000000
a 332 331 1000000
a 333 332 1000000
a 334 333 1000000
a 335 334 1000000
a 336 335 1000000
a 337 336 1000000
a 338 337 1000000
a 339 338 1000000
a 340 339 1000000
a 341 340 1000000
a 342 341 1000000
a 343 342 1000000
a 344 343 1000000
a 345 344 1000000
a 346 345 1000000
a 347 346 1000000
a 348 347 1000000
a 349 348 1000000
a 350 349 1000000
a 351 350 1000000
a 352 351 1000000
a 353 352 1000000
a 354 353 1000000
a 355 354 1000000
a 356 355 1000000
a 357 356 1000000
a 358 357 1000000
a 359 358 1000000
a 360 359 1000000
a 361 360 1000000
a 362 361 1000000
a 363 362 1000000
a 364 363 1000000
a 365 364 1000000
a 366 365 1000000
a 367 366 1000000
a 368 367 1000000
a 369 368 1000000
a 370 369 1000000
a 371 370 1000000
a 372 371 1000000
a 373 372 1000000
a 374 373 1000000
a 375 374 1000000
a 376 375 1000000
a 377 376 1000000
a 378 377 1000000
a 379 378 1000000
a 380 379 1000000
a 381 380 1000000
a 382 381 1000000
a 383 382 1000000
a 384 383 1000000
a 385 384 1000000
a 386 385 1000000
a 387 386 1000000
a 388 387 1000000
a 389 388 1000000
a 390 389 1000000
a 391 390 1000000
a 392 391 1000000
a 393 392 1000000
a 394 393 1000000
a 395 394 1000000
a 396 395 1000000
a 397 396 1000000
a 398 397 1000000
a 399 398 1000000
a 400 399 1000000
a 401 400 1000000
a 402 401 1000000
a 403 402 1000000
a 404 403 1000000
a 405 425 10
a 405 423 10
a 405 421 10
a 405 419 10
a 405 417 10
a 405 415 10
a 405 413 10
a 405 411 10
a 405 409 10
a 405 407 10
a 406 3 10
a 407 408 1
a 408 406 10
a 409 410 1
a 410 406 10
a 411 412 1
a 412 406 10
a 413 414 1
a 414 406 10
a 415 416 1
a 416 406 10
a 417 418 1
a 418 406 10
a 419 420 1
a 420 406 10
a 421 422 1
a 422 406 10
a 423 424 1
a 424 406 10
a 425 426 1
a 426 406 10
